Instance: Data/Instances_txt/inst_200_50_4.txt
SetUpTime: 11925.126507997513

Gurobi 10.0.1 (mac64[x86]) logging started Mo 14 Aug 18:19:15 2023

Set parameter LogFile to value "Output/MILP_RELAXED_inst_200_50_4_2023-08-14_09-45-28.txt"

Gurobi 10.0.1 (mac64[x86]) logging started Mo 14 Aug 18:19:15 2023

Set parameter LogFile to value "Output/MILP_RELAXED_inst_200_50_4_2023-08-14_09-45-28.txt"
Gurobi Optimizer version 10.0.1 build v10.0.1rc0 (mac64[x86])

CPU model: Intel(R) Core(TM) i5-1038NG7 CPU @ 2.00GHz
Thread count: 4 physical cores, 8 logical processors, using up to 8 threads

Optimize a model with 401 rows, 1677286 columns and 30328593 nonzeros
Model fingerprint: 0xa91c1106
Coefficient statistics:
  Matrix range     [1e+00, 1e+00]
  Objective range  [2e+00, 2e+04]
  Bounds range     [1e+00, 1e+00]
  RHS range        [1e+00, 1e+00]
Presolve removed 0 rows and 0 columns (presolve time = 6s) ...
Presolve removed 0 rows and 0 columns (presolve time = 11s) ...
Presolve time: 10.98s
Presolved: 401 rows, 1677286 columns, 30328593 nonzeros

Concurrent LP optimizer: dual simplex and barrier
Showing barrier log only...

Ordering time: 0.01s

Barrier statistics:
 AA' NZ     : 5.900e+04
 Factor NZ  : 8.060e+04 (roughly 700 MB of memory)
 Factor Ops : 2.157e+07 (less than 1 second per iteration)
 Threads    : 3

                  Objective                Residual
Iter       Primal          Dual         Primal    Dual     Compl     Time
   0   1.14393268e+09  0.00000000e+00  4.23e+04 0.00e+00  1.74e+00    16s
   1   2.21032596e+08 -4.34836809e+04  7.96e+03 3.17e+00  3.30e-01    17s
   2   1.80796749e+07 -5.00482074e+04  6.23e+02 9.08e-01  2.69e-02    18s
   3   5.50776092e+05 -4.74867235e+04  1.53e+01 6.39e-14  8.30e-04    19s
   4   2.24396959e+05 -7.85955031e+03  4.51e+00 7.82e-14  2.88e-04    21s
   5   1.83297437e+05  8.69383774e+03  3.22e+00 7.82e-14  2.06e-04    22s
   6   1.45193760e+05  1.91732750e+04  2.15e+00 4.97e-14  1.42e-04    23s
   7   9.52254727e+04  3.14742978e+04  6.82e-01 1.14e-13  6.94e-05    24s
   8   7.38108978e+04  3.91354194e+04  1.63e-01 1.42e-13  3.85e-05    25s
   9   6.60996892e+04  4.28741362e+04  4.67e-02 1.56e-13  2.64e-05    26s
  10   6.36765513e+04  4.78484416e+04  2.62e-02 1.28e-13  1.80e-05    28s
  11   6.27481965e+04  4.96202726e+04  2.05e-02 1.21e-13  1.49e-05    29s
  12   6.23113531e+04  5.15529115e+04  1.86e-02 1.46e-13  1.22e-05    30s
  13   6.21273445e+04  5.19983709e+04  1.78e-02 1.58e-13  1.14e-05    31s
  14   5.98603656e+04  5.31494849e+04  8.81e-03 1.62e-13  7.63e-06    32s
  15   5.79887060e+04  5.43685033e+04  3.31e-03 1.49e-13  4.14e-06    34s
  16   5.67604825e+04  5.45038034e+04  1.37e-03 1.03e-13  2.60e-06    35s
  17   5.59409104e+04  5.46875131e+04  5.76e-04 1.07e-13  1.45e-06    37s
  18   5.55677284e+04  5.47872902e+04  2.92e-04 1.85e-13  9.02e-07    38s
  19   5.53709262e+04  5.47960731e+04  1.78e-04 1.39e-13  6.65e-07    39s
  20   5.52434578e+04  5.48608329e+04  1.18e-04 1.29e-13  4.43e-07    40s
  21   5.51533422e+04  5.48864901e+04  8.10e-05 1.71e-13  3.09e-07    41s
  22   5.50626061e+04  5.49072213e+04  4.52e-05 1.71e-13  1.80e-07    42s
  23   5.50018035e+04  5.49131855e+04  2.30e-05 1.56e-13  1.03e-07    43s
  24   5.49656960e+04  5.49212227e+04  1.10e-05 1.03e-13  5.15e-08    44s
  25   5.49500084e+04  5.49255893e+04  6.06e-06 1.28e-13  2.83e-08    45s
  26   5.49492684e+04  5.49259493e+04  5.84e-06 1.81e-13  2.70e-08    46s
  27   5.49473119e+04  5.49259940e+04  5.26e-06 1.14e-13  2.47e-08    47s
  28   5.49390723e+04  5.49270263e+04  2.85e-06 1.71e-13  1.40e-08    48s
  29   5.49351461e+04  5.49272775e+04  1.71e-06 1.56e-13  9.12e-09    49s
  30   5.49304565e+04  5.49280244e+04  3.64e-07 1.56e-13  2.82e-09    50s
  31   5.49297252e+04  5.49286082e+04  1.90e-07 1.49e-13  1.30e-09    51s
  32   5.49291625e+04  5.49287905e+04  4.97e-08 1.21e-13  4.32e-10    52s
  33   5.49290028e+04  5.49289078e+04  8.78e-09 1.67e-13  1.10e-10    53s
  34   5.49289645e+04  5.49289392e+04  1.64e-09 1.31e-13  2.95e-11    54s
  35   5.49289600e+04  5.49289579e+04  1.26e-09 1.37e-13  2.48e-12    55s
  36   5.49289593e+04  5.49289592e+04  6.41e-10 1.99e-13  8.43e-14    56s

Barrier solved model in 36 iterations and 56.37 seconds (51.22 work units)
Optimal objective 5.49289593e+04

Crossover log...

     138 DPushes remaining with DInf 0.0000000e+00                57s
       0 DPushes remaining with DInf 0.0000000e+00                59s

     335 PPushes remaining with PInf 0.0000000e+00                59s
       0 PPushes remaining with PInf 0.0000000e+00                59s

  Push phase complete: Pinf 0.0000000e+00, Dinf 1.3776119e-11     60s


Solved with barrier
Iteration    Objective       Primal Inf.    Dual Inf.      Time
     474    5.4928959e+04   0.000000e+00   0.000000e+00     62s

Solved in 474 iterations and 61.76 seconds (53.77 work units)
Optimal objective  5.492895924e+04

User-callback calls 1544, time in user-callback 0.01 sec

=========================

OUTPUT STATISTICS
Relaxed: true
Time since start: 12331.634715795517
SetUpTime: 11925.12650680542
Objective value LB: 54928.959242681034
Objective value UB: 59274.0
Solving time LB: 130.0237979888916
Solving time UB: 143.2769467830658
Gap: 0.07330432832808594
